c Reduced graph for 4-FullIns_4_4 generated by Cyril Grelier
p edge 58 296
e 1 9
e 1 11
e 1 17
e 1 18
e 1 19
e 1 20
e 1 21
e 1 27
e 1 32
e 1 33
e 1 34
e 1 35
e 1 36
e 1 37
e 1 40
e 1 41
e 1 42
e 1 43
e 1 46
e 1 47
e 1 48
e 1 49
e 1 50
e 1 51
e 1 52
e 1 53
e 1 54
e 1 55
e 1 56
e 1 57
e 1 58
e 2 10
e 2 12
e 2 13
e 2 14
e 2 15
e 2 16
e 2 22
e 2 23
e 2 24
e 2 25
e 2 26
e 2 27
e 2 32
e 2 33
e 2 34
e 2 35
e 2 36
e 2 37
e 2 38
e 2 39
e 2 40
e 2 41
e 2 42
e 2 43
e 2 44
e 2 45
e 2 55
e 2 56
e 2 57
e 2 58
e 3 4
e 3 5
e 3 6
e 3 7
e 3 8
e 3 12
e 3 13
e 3 14
e 3 15
e 3 16
e 3 17
e 3 18
e 3 19
e 3 20
e 3 21
e 3 28
e 3 29
e 3 32
e 3 33
e 3 34
e 3 35
e 3 36
e 3 38
e 3 39
e 3 47
e 3 48
e 3 55
e 3 56
e 4 5
e 4 6
e 4 7
e 4 8
e 4 10
e 4 11
e 4 13
e 4 14
e 4 15
e 4 16
e 4 18
e 4 19
e 4 20
e 4 21
e 4 27
e 4 33
e 4 34
e 4 35
e 4 36
e 5 6
e 5 7
e 5 8
e 5 10
e 5 11
e 5 12
e 5 14
e 5 15
e 5 16
e 5 17
e 5 19
e 5 20
e 5 21
e 5 27
e 5 32
e 5 34
e 5 35
e 5 36
e 6 7
e 6 8
e 6 10
e 6 11
e 6 12
e 6 13
e 6 15
e 6 16
e 6 17
e 6 18
e 6 20
e 6 21
e 6 27
e 6 32
e 6 33
e 6 35
e 6 36
e 7 8
e 7 10
e 7 11
e 7 12
e 7 13
e 7 14
e 7 16
e 7 17
e 7 18
e 7 19
e 7 21
e 7 27
e 7 32
e 7 33
e 7 34
e 7 36
e 8 10
e 8 11
e 8 12
e 8 13
e 8 14
e 8 15
e 8 17
e 8 18
e 8 19
e 8 20
e 8 27
e 8 32
e 8 33
e 8 34
e 8 35
e 9 10
e 9 12
e 9 13
e 9 14
e 9 15
e 9 16
e 9 22
e 9 23
e 9 24
e 9 25
e 9 26
e 9 38
e 9 39
e 9 44
e 9 45
e 10 17
e 10 18
e 10 19
e 10 20
e 10 21
e 10 28
e 10 29
e 10 47
e 10 48
e 11 12
e 11 13
e 11 14
e 11 15
e 11 16
e 11 28
e 11 29
e 11 38
e 11 39
e 12 18
e 12 19
e 12 20
e 12 21
e 13 17
e 13 19
e 13 20
e 13 21
e 14 17
e 14 18
e 14 20
e 14 21
e 15 17
e 15 18
e 15 19
e 15 21
e 16 17
e 16 18
e 16 19
e 16 20
e 22 23
e 22 24
e 22 25
e 22 26
e 22 40
e 22 41
e 22 42
e 22 43
e 23 24
e 23 25
e 23 26
e 23 37
e 23 41
e 23 42
e 23 43
e 24 25
e 24 26
e 24 37
e 24 40
e 24 42
e 24 43
e 25 26
e 25 37
e 25 40
e 25 41
e 25 43
e 26 37
e 26 40
e 26 41
e 26 42
e 27 28
e 27 29
e 28 31
e 28 45
e 28 50
e 28 58
e 29 30
e 29 44
e 29 49
e 29 57
e 30 31
e 30 39
e 30 45
e 30 48
e 30 50
e 30 56
e 30 58
e 31 38
e 31 44
e 31 47
e 31 49
e 31 55
e 31 57
e 38 50
e 39 49
e 44 48
e 44 50
e 45 47
e 45 49
e 46 51
e 46 52
e 46 53
e 46 54
e 51 52
e 51 53
e 51 54
e 52 53
e 52 54
e 53 54
